c Nemesis formula in 6CNF in accordance with DIMACS CNF format:
c    Filename: MCNC/c432/c432.tdl
c    Formula number 35
c    1292 variables (range: 2 - 1293)
c    2784 clauses
c
c p cnf 1293 2784
p cnf 865 2784
396	0
-835	0
864	0
396	0
-397	0
395	0
99	-100	0
-99	100	0
395	397	0
-395	-397	0
-105	-409	0
-269	-409	0
-260	-409	0
-280	-409	0
395	99	0
-395	-99	0
835	-397	0
-835	397	0
835	-100	0
-835	100	0
397	-100	0
-397	100	0
-836	38	0
-39	-838	0
37	-838	0
39	-839	0
-37	-839	0
-839	837	0
-838	837	0
554	37	0
-554	-37	0
-555	38	0
556	39	0
-556	-39	0
175	-554	0
-175	554	0
175	-557	0
-175	557	0
175	-570	0
-175	570	0
176	-555	0
176	-558	0
176	-571	0
177	-556	0
-177	556	0
177	-559	0
-177	559	0
177	-572	0
-177	572	0
213	175	0
-213	-175	0
-214	176	0
215	177	0
-215	-177	0
78	-198	0
-78	198	0
78	-201	0
-78	201	0
78	-213	0
-78	213	0
78	-225	0
-78	225	0
78	-232	0
-78	232	0
78	-262	0
-78	262	0
78	-266	0
-78	266	0
78	-271	0
-78	271	0
78	-282	0
-78	282	0
78	-382	0
-78	382	0
78	-438	0
-78	438	0
78	-466	0
-78	466	0
78	-513	0
-78	513	0
78	-525	0
-78	525	0
78	-613	0
-78	613	0
78	-639	0
-78	639	0
78	-661	0
-78	661	0
78	-688	0
-78	688	0
78	-694	0
-78	694	0
78	-719	0
-78	719	0
78	-759	0
-78	759	0
79	-199	0
79	-202	0
79	-214	0
79	-226	0
79	-233	0
79	-263	0
79	-267	0
79	-272	0
79	-283	0
79	-383	0
79	-439	0
79	-467	0
79	-514	0
79	-526	0
79	-614	0
79	-640	0
79	-662	0
79	-689	0
79	-695	0
79	-720	0
79	-760	0
80	-200	0
-80	200	0
80	-203	0
-80	203	0
80	-215	0
-80	215	0
80	-227	0
-80	227	0
80	-234	0
-80	234	0
80	-264	0
-80	264	0
80	-268	0
-80	268	0
80	-273	0
-80	273	0
80	-284	0
-80	284	0
80	-384	0
-80	384	0
80	-440	0
-80	440	0
80	-468	0
-80	468	0
80	-515	0
-80	515	0
80	-527	0
-80	527	0
80	-615	0
-80	615	0
80	-641	0
-80	641	0
80	-663	0
-80	663	0
80	-690	0
-80	690	0
80	-696	0
-80	696	0
80	-721	0
-80	721	0
80	-761	0
-80	761	0
99	78	0
552	78	0
389	78	0
395	78	0
99	80	0
552	80	0
389	80	0
397	80	0
409	395	0
-409	-395	0
231	-408	0
-231	408	0
231	-409	0
-231	409	0
-421	-231	0
-414	-231	0
-418	-231	0
401	-415	0
-401	415	0
401	-418	0
-401	418	0
401	-427	0
-401	427	0
401	-432	0
-401	432	0
34	401	0
-34	-401	0
12	-411	0
-12	411	0
12	-414	0
-12	414	0
410	-421	0
-410	421	0
410	-422	0
-410	422	0
-564	-825	0
420	-825	0
564	-826	0
-420	-826	0
-826	410	0
-825	410	0
57	-181	0
-57	181	0
57	-182	0
-57	182	0
57	-185	0
-57	185	0
57	-222	0
-57	222	0
57	-247	0
-57	247	0
57	-379	0
-57	379	0
57	-420	0
-57	420	0
57	-459	0
-57	459	0
57	-506	0
-57	506	0
57	-544	0
-57	544	0
57	-588	0
-57	588	0
57	-610	0
-57	610	0
57	-636	0
-57	636	0
57	-652	0
-57	652	0
57	-691	0
-57	691	0
57	-702	0
-57	702	0
57	-712	0
-57	712	0
57	-772	0
-57	772	0
57	-805	0
-57	805	0
583	57	0
560	57	0
58	57	0
575	57	0
700	575	0
-700	-575	0
576	-700	0
-576	700	0
576	-701	0
-576	701	0
-742	-576	0
-743	-576	0
578	-581	0
-578	581	0
578	-582	0
-578	582	0
578	-604	0
-578	604	0
578	-743	0
-578	743	0
26	578	0
-26	-578	0
7	-739	0
-7	739	0
7	-742	0
-7	742	0
-245	-58	0
-61	-58	0
56	-60	0
-56	60	0
56	-61	0
-56	61	0
-462	-56	0
-448	-56	0
433	-448	0
-433	448	0
433	-449	0
-433	449	0
451	433	0
-451	-433	0
32	-451	0
-32	451	0
32	-452	0
-32	452	0
32	-483	0
-32	483	0
5	-462	0
-5	462	0
5	-463	0
-5	463	0
59	-245	0
-59	245	0
59	-246	0
-59	246	0
-715	-59	0
-708	-59	0
703	-706	0
-703	706	0
703	-707	0
-703	707	0
703	-708	0
-703	708	0
703	-736	0
-703	736	0
9	703	0
-9	-703	0
21	-715	0
-21	715	0
21	-716	0
-21	716	0
-563	-560	0
-561	-560	0
-565	-560	0
419	-564	0
-419	564	0
419	-565	0
-419	565	0
-431	-419	0
-432	-419	0
25	-428	0
-25	428	0
25	-431	0
-25	431	0
664	561	0
653	561	0
665	561	0
803	665	0
-803	-665	0
784	-803	0
-784	803	0
784	-804	0
-784	804	0
-801	-784	0
-802	-784	0
785	-794	0
-785	794	0
785	-797	0
-785	797	0
785	-802	0
-785	802	0
785	-812	0
-785	812	0
19	785	0
-19	-785	0
17	-798	0
-17	798	0
17	-801	0
-17	801	0
655	653	0
-655	-653	0
651	-654	0
-651	654	0
651	-655	0
-651	655	0
-782	-651	0
-783	-651	0
498	-775	0
-498	775	0
498	-776	0
-498	776	0
498	-783	0
-498	783	0
768	498	0
-768	-498	0
35	-767	0
-35	767	0
35	-768	0
-35	768	0
30	-779	0
-30	779	0
30	-782	0
-30	782	0
667	664	0
-667	-664	0
184	-666	0
-184	666	0
184	-667	0
-184	667	0
-649	-184	0
-650	-184	0
187	-196	0
-187	196	0
187	-197	0
-187	197	0
187	-367	0
-187	367	0
187	-650	0
-187	650	0
28	187	0
-28	-187	0
4	-646	0
-4	646	0
4	-649	0
-4	649	0
500	-562	0
-500	562	0
500	-563	0
-500	563	0
-509	-500	0
-502	-500	0
495	-501	0
-495	501	0
495	-502	0
-495	502	0
532	495	0
-532	-495	0
6	-532	0
-6	532	0
6	-533	0
-6	533	0
6	-543	0
-6	543	0
10	-509	0
-10	509	0
10	-510	0
-10	510	0
586	583	0
-586	-583	0
584	-586	0
-584	586	0
584	-587	0
-584	587	0
-747	-584	0
-748	-584	0
589	-592	0
-589	592	0
589	-593	0
-589	593	0
589	-630	0
-589	630	0
589	-748	0
-589	748	0
27	589	0
-27	-589	0
11	-744	0
-11	744	0
11	-747	0
-11	747	0
-393	-389	0
-659	-389	0
-573	-389	0
391	-573	0
-391	573	0
391	-574	0
-391	574	0
391	-687	0
-391	687	0
-806	-391	0
-793	-391	0
-797	-391	0
18	-790	0
-18	790	0
18	-793	0
-18	793	0
789	-806	0
-789	806	0
789	-807	0
-789	807	0
-804	-813	0
805	-813	0
804	-814	0
-805	-814	0
-814	789	0
-813	789	0
390	-659	0
-390	659	0
390	-660	0
-390	660	0
-674	-390	0
-755	-390	0
-775	-390	0
22	-755	0
-22	755	0
22	-756	0
-22	756	0
497	-674	0
-497	674	0
497	-675	0
-497	675	0
-654	-819	0
652	-819	0
654	-820	0
-652	-820	0
-820	497	0
-819	497	0
186	-392	0
-186	392	0
186	-393	0
-186	393	0
-194	-186	0
-385	-186	0
-196	-186	0
23	-385	0
-23	385	0
23	-386	0
-23	386	0
183	-194	0
-183	194	0
183	-195	0
-183	195	0
-666	-831	0
185	-831	0
666	-832	0
-185	-832	0
-832	183	0
-831	183	0
394	-552	0
-394	552	0
394	-553	0
-394	553	0
523	394	0
-523	-394	0
496	-523	0
-496	523	0
496	-524	0
-496	524	0
-548	-496	0
-516	-496	0
-501	-496	0
33	-516	0
-33	516	0
33	-517	0
-33	517	0
499	-548	0
-499	548	0
499	-549	0
-499	549	0
-562	-823	0
544	-823	0
562	-824	0
-544	-824	0
-824	499	0
-823	499	0
-105	-99	0
-269	-99	0
-260	-99	0
-280	-99	0
103	-280	0
-103	280	0
103	-281	0
-103	281	0
103	-437	0
-103	437	0
-447	-103	0
-469	-103	0
-449	-103	0
29	-469	0
-29	469	0
29	-470	0
-29	470	0
55	-444	0
-55	444	0
55	-447	0
-55	447	0
-60	-833	0
181	-833	0
60	-834	0
-181	-834	0
-834	55	0
-833	55	0
102	-260	0
-102	260	0
102	-261	0
-102	261	0
102	-265	0
-102	265	0
-580	-102	0
-616	-102	0
-582	-102	0
31	-616	0
-31	616	0
31	-617	0
-31	617	0
577	-579	0
-577	579	0
577	-580	0
-577	580	0
-701	-815	0
702	-815	0
701	-816	0
-702	-816	0
-816	577	0
-815	577	0
101	-269	0
-101	269	0
101	-270	0
-101	270	0
-704	-101	0
-722	-101	0
-706	-101	0
20	-722	0
-20	722	0
20	-723	0
-20	723	0
244	-704	0
-244	704	0
244	-705	0
-244	705	0
-246	-827	0
247	-827	0
246	-828	0
-247	-828	0
-828	244	0
-827	244	0
77	-104	0
-77	104	0
77	-105	0
-77	105	0
-590	-77	0
-642	-77	0
-592	-77	0
15	-642	0
-15	642	0
15	-643	0
-15	643	0
585	-590	0
-585	590	0
585	-591	0
-585	591	0
-587	-821	0
588	-821	0
587	-822	0
-588	-822	0
-822	585	0
-821	585	0
-42	-845	0
40	-845	0
42	-846	0
-40	-846	0
-846	844	0
-845	844	0
473	40	0
-473	-40	0
-474	41	0
475	42	0
-475	-42	0
210	-473	0
-210	473	0
210	-476	0
-210	476	0
210	-529	0
-210	529	0
211	-474	0
211	-477	0
211	-530	0
212	-475	0
-212	475	0
212	-478	0
-212	478	0
212	-531	0
-212	531	0
492	210	0
-492	-210	0
-493	211	0
494	212	0
-494	-212	0
93	-402	0
-93	402	0
93	-405	0
-93	405	0
93	-492	0
-93	492	0
93	-597	0
-93	597	0
93	-623	0
-93	623	0
93	-729	0
-93	729	0
93	-752	0
-93	752	0
93	-786	0
-93	786	0
94	-403	0
94	-406	0
94	-493	0
94	-598	0
94	-624	0
94	-730	0
94	-753	0
94	-787	0
95	-404	0
-95	404	0
95	-407	0
-95	407	0
95	-494	0
-95	494	0
95	-599	0
-95	599	0
95	-625	0
-95	625	0
95	-731	0
-95	731	0
95	-754	0
-95	754	0
95	-788	0
-95	788	0
68	93	0
96	93	0
81	93	0
-69	94	0
-97	94	0
-82	94	0
70	95	0
98	95	0
83	95	0
-90	-81	0
-85	82	0
-91	82	0
-85	87	0
-92	-83	0
-444	-90	0
-441	-90	0
-435	91	0
-275	91	0
-442	-444	0
-445	-441	0
-275	-441	0
-435	-441	0
-275	-444	0
-435	-444	0
-444	-92	0
-441	-92	0
479	441	0
452	441	0
450	-479	0
-450	479	0
450	-480	0
-450	480	0
14	450	0
-14	-450	0
277	274	0
-277	-274	0
-278	275	0
279	276	0
-279	-276	0
-281	-277	0
-282	-277	0
-283	278	0
-283	-281	0
-281	-279	0
-284	-279	0
437	434	0
438	434	0
-439	435	0
-439	437	0
437	436	0
440	436	0
-705	-87	0
-732	-87	0
-707	-87	0
8	-732	0
-8	732	0
8	-733	0
-8	733	0
-272	85	0
-204	-96	0
-188	-96	0
-207	-96	0
-205	97	0
-189	97	0
-208	97	0
-206	-98	0
-190	-98	0
-209	-98	0
671	207	0
-657	208	0
-672	208	0
-669	-675	0
-676	-668	0
-657	-668	0
-657	-675	0
673	209	0
697	671	0
-567	672	0
-685	672	0
-685	697	0
-567	697	0
697	673	0
-807	-697	0
-811	-697	0
-812	-697	0
3	-808	0
-3	808	0
3	-811	0
-3	811	0
-687	-684	0
-688	-684	0
-689	685	0
-689	-687	0
-687	-686	0
-690	-686	0
-569	-566	0
-570	-566	0
-571	567	0
-571	-569	0
-569	-568	0
-572	-568	0
574	569	0
-574	-569	0
762	668	0
767	668	0
766	762	0
-766	-762	0
1	-763	0
-1	763	0
1	-766	0
-1	766	0
-660	-817	0
661	-817	0
660	-818	0
-661	-818	0
-818	656	0
-817	656	0
-662	657	0
-660	-848	0
663	-848	0
660	-849	0
-663	-849	0
-849	658	0
-848	658	0
-191	-188	0
-195	-188	0
-363	-188	0
-197	-188	0
-192	189	0
-192	-197	0
-192	-363	0
-192	-195	0
-193	-190	0
-195	-190	0
-363	-190	0
-197	-190	0
16	-363	0
-16	363	0
16	-364	0
-16	364	0
-392	-829	0
201	-829	0
392	-830	0
-201	-830	0
-830	191	0
-829	191	0
-202	192	0
-392	-850	0
203	-850	0
392	-851	0
-203	-851	0
-851	193	0
-850	193	0
235	204	0
-235	-204	0
-236	205	0
237	206	0
-237	-206	0
-241	-235	0
-229	236	0
-242	236	0
-229	238	0
-243	-237	0
-549	-241	0
-536	-241	0
-521	242	0
-546	242	0
-537	-549	0
-550	-536	0
-546	-536	0
-521	-536	0
-546	-549	0
-521	-549	0
-549	-243	0
-536	-243	0
542	536	0
543	536	0
528	-539	0
-528	539	0
528	-542	0
-528	542	0
13	528	0
-13	-528	0
553	545	0
557	545	0
-558	546	0
-558	553	0
553	547	0
559	547	0
524	520	0
525	520	0
-526	521	0
-526	524	0
524	522	0
527	522	0
-422	-238	0
-426	-238	0
-427	-238	0
36	-423	0
-36	423	0
36	-426	0
-36	426	0
-233	229	0
-62	-68	0
-72	69	0
-63	69	0
-72	74	0
-64	-70	0
65	62	0
-65	-62	0
-66	63	0
67	64	0
-67	-64	0
254	65	0
-249	66	0
-252	66	0
-252	254	0
-249	254	0
254	67	0
-579	-254	0
-600	-254	0
-581	-254	0
24	-600	0
-24	600	0
24	-601	0
-24	601	0
-265	-251	0
-266	-251	0
-267	252	0
-267	-265	0
-265	-253	0
-268	-253	0
257	248	0
-257	-248	0
-258	249	0
259	250	0
-259	-250	0
261	257	0
262	257	0
-263	258	0
-263	261	0
261	259	0
264	259	0
-591	-74	0
-626	-74	0
-593	-74	0
2	-626	0
-2	626	0
2	-627	0
-2	627	0
-199	72	0
-45	-853	0
43	-853	0
45	-854	0
-43	-854	0
-854	852	0
-853	852	0
297	43	0
145	43	0
127	43	0
133	43	0
-298	44	0
-146	44	0
-128	44	0
-134	44	0
299	45	0
147	45	0
129	45	0
135	45	0
106	-130	0
-106	130	0
106	-133	0
-106	133	0
106	-151	0
-106	151	0
107	-131	0
107	-134	0
107	-152	0
108	-132	0
-108	132	0
108	-135	0
-108	135	0
108	-153	0
-108	153	0
172	106	0
-172	-106	0
-173	107	0
174	108	0
-174	-108	0
157	-169	0
-157	169	0
157	-172	0
-157	172	0
158	-170	0
158	-173	0
159	-171	0
-159	171	0
159	-174	0
-159	174	0
-678	-157	0
-695	158	0
-679	158	0
-695	790	0
-799	691	0
-692	798	0
-680	-159	0
681	678	0
-681	-678	0
-682	679	0
683	680	0
-683	-680	0
-794	-681	0
-787	682	0
-787	808	0
-809	-794	0
-787	-794	0
-794	-683	0
115	-124	0
-115	124	0
115	-127	0
-115	127	0
115	-294	0
-115	294	0
115	-342	0
-115	342	0
116	-125	0
116	-128	0
116	-295	0
116	-343	0
117	-126	0
-117	126	0
117	-129	0
-117	129	0
117	-296	0
-117	296	0
117	-344	0
-117	344	0
339	115	0
-339	-115	0
-340	116	0
341	117	0
-341	-117	0
166	-318	0
-166	318	0
166	-321	0
-166	321	0
166	-339	0
-166	339	0
167	-319	0
167	-322	0
167	-340	0
168	-320	0
-168	320	0
168	-323	0
-168	323	0
168	-341	0
-168	341	0
-630	-166	0
-620	-166	0
-624	167	0
-621	167	0
-621	-630	0
-624	627	0
-628	-630	0
-624	-630	0
-630	-168	0
-622	-168	0
633	620	0
-633	-620	0
-634	621	0
635	622	0
-635	-622	0
-640	634	0
-640	643	0
-745	636	0
-637	744	0
121	-145	0
-121	145	0
121	-148	0
-121	148	0
122	-146	0
122	-149	0
123	-147	0
-123	147	0
123	-150	0
-123	150	0
315	121	0
-315	-121	0
-316	122	0
317	123	0
-317	-123	0
-321	-315	0
-324	-315	0
-322	316	0
-325	316	0
-323	-317	0
-326	-317	0
291	-309	0
-291	309	0
291	-312	0
-291	312	0
291	-324	0
-291	324	0
291	-345	0
-291	345	0
291	-486	0
-291	486	0
292	-310	0
292	-313	0
292	-325	0
292	-346	0
292	-487	0
293	-311	0
-293	311	0
293	-314	0
-293	314	0
293	-326	0
-293	326	0
293	-347	0
-293	347	0
293	-488	0
-293	488	0
607	291	0
594	291	0
-608	292	0
-595	292	0
609	293	0
596	293	0
-604	-594	0
-598	595	0
-598	601	0
-602	-604	0
-598	-604	0
-604	-596	0
-614	608	0
-614	617	0
-740	610	0
-611	739	0
118	-297	0
-118	297	0
118	-300	0
-118	300	0
118	-306	0
-118	306	0
118	-489	0
-118	489	0
119	-298	0
119	-301	0
119	-307	0
119	-490	0
120	-299	0
-120	299	0
120	-302	0
-120	302	0
120	-308	0
-120	308	0
120	-491	0
-120	491	0
453	118	0
-453	-118	0
-454	119	0
455	120	0
-455	-120	0
-709	-453	0
-720	454	0
-710	454	0
-720	723	0
-717	712	0
-713	716	0
-711	-455	0
726	709	0
-726	-709	0
-727	710	0
728	711	0
-728	-711	0
-736	-726	0
-730	727	0
-730	733	0
-734	-736	0
-730	-736	0
-736	-728	0
-51	-856	0
49	-856	0
51	-857	0
-49	-857	0
-857	855	0
-856	855	0
142	49	0
148	49	0
136	49	0
151	49	0
-143	50	0
-149	50	0
-137	50	0
-152	50	0
144	51	0
150	51	0
138	51	0
153	51	0
342	136	0
373	136	0
345	136	0
351	136	0
-343	137	0
-374	137	0
-346	137	0
-352	137	0
344	138	0
375	138	0
347	138	0
353	138	0
330	-348	0
-330	348	0
330	-351	0
-330	351	0
331	-349	0
331	-352	0
332	-350	0
-332	350	0
332	-353	0
-332	353	0
357	330	0
-357	-330	0
-358	331	0
359	332	0
-359	-332	0
303	-354	0
-303	354	0
303	-357	0
-303	357	0
304	-355	0
304	-358	0
305	-356	0
-305	356	0
305	-359	0
-305	359	0
-503	-303	0
-514	304	0
-504	304	0
-514	517	0
-511	506	0
-507	510	0
-505	-305	0
533	503	0
-530	504	0
-530	-539	0
-540	533	0
-530	533	0
533	505	0
216	-373	0
-216	373	0
216	-376	0
-216	376	0
217	-374	0
217	-377	0
218	-375	0
-218	375	0
218	-378	0
-218	378	0
-219	-216	0
-226	217	0
-220	217	0
-226	411	0
-429	222	0
-223	428	0
-221	-218	0
398	219	0
-398	-219	0
-399	220	0
400	221	0
-400	-221	0
-415	-398	0
-406	399	0
-406	423	0
-424	-415	0
-406	-415	0
-415	-400	0
109	-139	0
-109	139	0
109	-142	0
-109	142	0
110	-140	0
110	-143	0
111	-141	0
-111	141	0
111	-144	0
-111	144	0
294	109	0
300	109	0
309	109	0
285	109	0
-295	110	0
-301	110	0
-310	110	0
-286	110	0
296	111	0
302	111	0
311	111	0
287	111	0
333	285	0
-333	-285	0
-334	286	0
335	287	0
-335	-287	0
288	-333	0
-288	333	0
288	-336	0
-288	336	0
289	-334	0
289	-337	0
290	-335	0
-290	335	0
290	-338	0
-290	338	0
483	288	0
456	288	0
-477	289	0
-457	289	0
-457	483	0
-477	-480	0
-481	483	0
-477	483	0
483	290	0
458	290	0
-467	457	0
-467	470	0
-464	459	0
-460	463	0
-48	-859	0
46	-859	0
48	-860	0
-46	-860	0
-860	858	0
-859	858	0
130	46	0
139	46	0
112	46	0
124	46	0
-131	47	0
-140	47	0
-113	47	0
-125	47	0
132	48	0
141	48	0
114	48	0
126	48	0
306	112	0
354	112	0
312	112	0
-307	113	0
-355	113	0
-313	113	0
308	114	0
356	114	0
314	114	0
-54	-862	0
52	-862	0
54	-863	0
-52	-863	0
-863	861	0
-862	861	0
-178	-52	0
-154	-52	0
-179	53	0
-155	53	0
-180	-54	0
-156	-54	0
-169	-154	0
-160	-154	0
-163	-154	0
-318	-154	0
-170	155	0
-161	155	0
-164	155	0
-319	155	0
-171	-156	0
-162	-156	0
-165	-156	0
-320	-156	0
486	163	0
489	163	0
-487	164	0
-490	164	0
488	165	0
491	165	0
336	160	0
327	160	0
348	160	0
-337	161	0
-328	161	0
-349	161	0
338	162	0
329	162	0
350	162	0
-376	-327	0
-371	328	0
-361	328	0
-377	328	0
-378	-329	0
-367	-360	0
-403	361	0
-403	364	0
-365	-367	0
-403	-367	0
-367	-362	0
-383	371	0
-383	386	0
-647	379	0
-380	646	0
-769	-178	0
-776	-178	0
-770	179	0
-770	-776	0
-773	779	0
-780	772	0
-773	-776	0
-780	-776	0
-771	-180	0
-776	-180	0
749	769	0
-749	-769	0
-750	770	0
751	771	0
-751	-771	0
-753	750	0
-760	750	0
-760	756	0
-753	763	0
-861	864	0
-858	864	0
-855	864	0
-852	864	0
-844	864	0
-837	864	0
838	39	-37	0
839	-39	37	0
-837	839	838	0
-38	37	39	0
-38	-37	-39	0
-571	570	572	0
-571	-570	-572	0
-558	557	559	0
-558	-557	-559	0
-555	554	556	0
-555	-554	-556	0
-176	175	177	0
-176	-175	-177	0
-760	759	761	0
-760	-759	-761	0
-720	719	721	0
-720	-719	-721	0
-695	694	696	0
-695	-694	-696	0
-689	688	690	0
-689	-688	-690	0
-662	661	663	0
-662	-661	-663	0
-640	639	641	0
-640	-639	-641	0
-614	613	615	0
-614	-613	-615	0
-526	525	527	0
-526	-525	-527	0
-514	513	515	0
-514	-513	-515	0
-467	466	468	0
-467	-466	-468	0
-439	438	440	0
-439	-438	-440	0
-383	382	384	0
-383	-382	-384	0
-283	282	284	0
-283	-282	-284	0
-272	271	273	0
-272	-271	-273	0
-267	266	268	0
-267	-266	-268	0
-263	262	264	0
-263	-262	-264	0
-233	232	234	0
-233	-232	-234	0
-226	225	227	0
-226	-225	-227	0
-214	213	215	0
-214	-213	-215	0
-202	201	203	0
-202	-201	-203	0
-199	198	200	0
-199	-198	-200	0
-79	78	80	0
-79	-78	-80	0
825	564	-420	0
826	-564	420	0
-410	826	825	0
576	742	743	0
58	245	61	0
56	462	448	0
59	715	708	0
419	431	432	0
784	801	802	0
651	782	783	0
184	649	650	0
500	509	502	0
584	747	748	0
813	804	-805	0
814	-804	805	0
-789	814	813	0
819	654	-652	0
820	-654	652	0
-497	820	819	0
831	666	-185	0
832	-666	185	0
-183	832	831	0
823	562	-544	0
824	-562	544	0
-499	824	823	0
833	60	-181	0
834	-60	181	0
-55	834	833	0
815	701	-702	0
816	-701	702	0
-577	816	815	0
827	246	-247	0
828	-246	247	0
-244	828	827	0
821	587	-588	0
822	-587	588	0
-585	822	821	0
845	42	-40	0
846	-42	40	0
-844	846	845	0
-41	40	42	0
-41	-40	-42	0
-530	529	531	0
-530	-529	-531	0
-477	476	478	0
-477	-476	-478	0
-474	473	475	0
-474	-473	-475	0
-211	210	212	0
-211	-210	-212	0
-787	786	788	0
-787	-786	-788	0
-753	752	754	0
-753	-752	-754	0
-730	729	731	0
-730	-729	-731	0
-624	623	625	0
-624	-623	-625	0
-598	597	599	0
-598	-597	-599	0
-493	492	494	0
-493	-492	-494	0
-406	405	407	0
-406	-405	-407	0
-403	402	404	0
-403	-402	-404	0
-82	-83	98	0
-82	-81	96	0
-82	96	98	0
-82	-83	70	0
-82	-81	68	0
-82	68	70	0
-97	-98	83	0
-97	-96	81	0
-97	81	83	0
-97	-98	70	0
-97	-96	68	0
-97	68	70	0
-69	-70	83	0
-69	-68	81	0
-69	81	83	0
-69	-70	98	0
-69	-68	96	0
-69	96	98	0
-94	93	95	0
-94	-93	-95	0
-87	-84	-81	0
90	84	81	0
90	87	81	0
-88	-89	86	0
-88	-87	84	0
-88	84	86	0
-88	-89	-90	0
-88	-87	-92	0
-88	-90	-92	0
-85	-86	-90	0
-85	-84	-92	0
-85	-90	-92	0
-82	81	83	0
-82	-81	-83	0
-87	-86	-83	0
92	86	83	0
92	87	83	0
-274	-434	-90	0
-275	-276	436	0
-275	-274	434	0
-275	434	436	0
-435	-436	276	0
-435	-434	274	0
-435	274	276	0
-91	90	92	0
-91	-90	-92	0
-276	-436	-92	0
-441	-479	-452	0
-275	274	276	0
-275	-274	-276	0
277	281	282	0
-278	277	279	0
-278	-277	-279	0
279	281	284	0
-434	-437	-438	0
-435	434	436	0
-435	-434	-436	0
-436	-437	-440	0
271	270	84	0
-271	-270	84	0
-271	270	-84	0
271	-270	-84	0
-85	84	86	0
-85	-84	-86	0
273	270	86	0
-273	-270	86	0
-273	270	-86	0
273	-270	-86	0
-208	-209	-188	0
-208	-207	-190	0
-208	-188	-190	0
-208	-209	-204	0
-208	-207	-206	0
-208	-204	-206	0
-189	-190	-207	0
-189	-188	-209	0
-189	-207	-209	0
-189	-190	-204	0
-189	-188	-206	0
-189	-204	-206	0
-205	-206	-207	0
-205	-204	-209	0
-205	-207	-209	0
-205	-206	-188	0
-205	-204	-190	0
-205	-188	-190	0
-97	96	98	0
-97	-96	-98	0
-671	-656	-207	0
-671	-675	-207	0
-671	-668	-207	0
-669	-670	-656	0
-669	-668	-658	0
-669	-656	-658	0
-676	-677	-656	0
-676	-675	-658	0
-676	-656	-658	0
-669	-670	673	0
-669	-668	671	0
-669	671	673	0
-676	-677	673	0
-676	-675	671	0
-676	671	673	0
-657	-658	673	0
-657	-656	671	0
-657	671	673	0
-208	207	209	0
-208	-207	-209	0
-673	-658	-209	0
-673	-675	-209	0
-673	-668	-209	0
684	566	671	0
-697	-566	-671	0
-697	-684	-671	0
-685	-686	-566	0
-685	-684	-568	0
-685	-566	-568	0
-567	-568	-684	0
-567	-566	-686	0
-567	-684	-686	0
-672	671	673	0
-672	-671	-673	0
686	568	673	0
-697	-568	-673	0
-697	-686	-673	0
684	687	688	0
-685	684	686	0
-685	-684	-686	0
686	687	690	0
566	569	570	0
-567	566	568	0
-567	-566	-568	0
568	569	572	0
-668	-762	-767	0
817	660	-661	0
818	-660	661	0
-656	818	817	0
-657	656	658	0
-657	-656	-658	0
848	660	-663	0
849	-660	663	0
-658	849	848	0
-189	188	190	0
-189	-188	-190	0
829	392	-201	0
830	-392	201	0
-191	830	829	0
-192	191	193	0
-192	-191	-193	0
850	392	-203	0
851	-392	203	0
-193	851	850	0
-205	204	206	0
-205	-204	-206	0
-238	-228	-235	0
241	228	235	0
241	238	235	0
-239	-240	230	0
-239	-238	228	0
-239	228	230	0
-239	-240	-241	0
-239	-238	-243	0
-239	-241	-243	0
-229	-230	-241	0
-229	-228	-243	0
-229	-241	-243	0
-236	235	237	0
-236	-235	-237	0
-238	-230	-237	0
243	230	237	0
243	238	237	0
-545	-520	-241	0
-546	-547	522	0
-546	-545	520	0
-546	520	522	0
-521	-522	547	0
-521	-520	545	0
-521	545	547	0
-242	241	243	0
-242	-241	-243	0
-547	-522	-243	0
-536	-542	-543	0
-545	-553	-557	0
-546	545	547	0
-546	-545	-547	0
-547	-553	-559	0
-520	-524	-525	0
-521	520	522	0
-521	-520	-522	0
-522	-524	-527	0
232	408	228	0
-232	-408	228	0
-232	408	-228	0
232	-408	-228	0
-229	228	230	0
-229	-228	-230	0
234	408	230	0
-234	-408	230	0
-234	408	-230	0
234	-408	-230	0
-74	-71	-68	0
62	71	68	0
62	74	68	0
-75	-76	73	0
-75	-74	71	0
-75	71	73	0
-75	-76	-62	0
-75	-74	-64	0
-75	-62	-64	0
-72	-73	-62	0
-72	-71	-64	0
-72	-62	-64	0
-69	68	70	0
-69	-68	-70	0
-74	-73	-70	0
64	73	70	0
64	74	70	0
-63	62	64	0
-63	-62	-64	0
251	248	65	0
-254	-248	-65	0
-254	-251	-65	0
-252	-253	-248	0
-252	-251	-250	0
-252	-248	-250	0
-249	-250	-251	0
-249	-248	-253	0
-249	-251	-253	0
-66	65	67	0
-66	-65	-67	0
253	250	67	0
-254	-250	-67	0
-254	-253	-67	0
251	265	266	0
-252	251	253	0
-252	-251	-253	0
253	265	268	0
-249	248	250	0
-249	-248	-250	0
-257	-261	-262	0
-258	257	259	0
-258	-257	-259	0
-259	-261	-264	0
198	104	71	0
-198	-104	71	0
-198	104	-71	0
198	-104	-71	0
-72	71	73	0
-72	-71	-73	0
200	104	73	0
-200	-104	73	0
-200	104	-73	0
200	-104	-73	0
853	45	-43	0
854	-45	43	0
-852	854	853	0
-134	-135	129	0
-134	-133	127	0
-134	127	129	0
-134	-135	147	0
-134	-133	145	0
-134	145	147	0
-134	-135	299	0
-134	-133	297	0
-134	297	299	0
-128	-129	135	0
-128	-127	133	0
-128	133	135	0
-128	-129	147	0
-128	-127	145	0
-128	145	147	0
-128	-129	299	0
-128	-127	297	0
-128	297	299	0
-146	-147	135	0
-146	-145	133	0
-146	133	135	0
-146	-147	129	0
-146	-145	127	0
-146	127	129	0
-146	-147	299	0
-146	-145	297	0
-146	297	299	0
-298	-299	135	0
-298	-297	133	0
-298	133	135	0
-298	-299	129	0
-298	-297	127	0
-298	127	129	0
-298	-299	147	0
-298	-297	145	0
-298	145	147	0
-44	43	45	0
-44	-43	-45	0
-152	151	153	0
-152	-151	-153	0
-134	133	135	0
-134	-133	-135	0
-131	130	132	0
-131	-130	-132	0
-107	106	108	0
-107	-106	-108	0
-158	170	173	0
-173	172	174	0
-173	-172	-174	0
-170	169	171	0
-170	-169	-171	0
-798	-691	-157	0
-790	-694	-157	0
-791	-792	696	0
-791	-790	694	0
-791	694	696	0
-791	-792	-678	0
-791	-790	-680	0
-791	-678	-680	0
-695	-696	-678	0
-695	-694	-680	0
-695	-678	-680	0
-799	-800	-678	0
-799	-798	-680	0
-799	-678	-680	0
-692	-693	-678	0
-692	-691	-680	0
-692	-678	-680	0
-679	-798	-691	0
-791	-798	-691	0
-695	-798	-691	0
-158	157	159	0
-158	-157	-159	0
-798	-691	-159	0
-790	-696	-159	0
-679	678	680	0
-679	-678	-680	0
-808	-786	-681	0
794	786	681	0
794	808	681	0
-809	-810	788	0
-809	-808	786	0
-809	786	788	0
-682	681	683	0
-682	-681	-683	0
-808	-788	-683	0
794	788	683	0
794	808	683	0
-343	342	344	0
-343	-342	-344	0
-295	294	296	0
-295	-294	-296	0
-128	127	129	0
-128	-127	-129	0
-125	124	126	0
-125	-124	-126	0
-116	115	117	0
-116	-115	-117	0
-340	339	341	0
-340	-339	-341	0
-322	321	323	0
-322	-321	-323	0
-319	318	320	0
-319	-318	-320	0
-627	-623	-166	0
-631	-632	-620	0
-631	-630	-622	0
-631	-620	-622	0
-628	-629	625	0
-628	-627	623	0
-628	623	625	0
-628	-629	-620	0
-628	-627	-622	0
-628	-620	-622	0
-624	-625	-620	0
-624	-623	-622	0
-624	-620	-622	0
-167	166	168	0
-167	-166	-168	0
-627	-625	-168	0
-621	620	622	0
-621	-620	-622	0
-744	-636	-633	0
-643	-639	-633	0
639	636	633	0
643	636	633	0
639	744	633	0
643	744	633	0
-644	-645	641	0
-644	-643	639	0
-644	639	641	0
-644	-744	-636	0
-640	-744	-636	0
-634	633	635	0
-634	-633	-635	0
-744	-636	-635	0
-643	-641	-635	0
641	636	635	0
643	636	635	0
641	744	635	0
643	744	635	0
-122	146	149	0
-149	148	150	0
-149	-148	-150	0
-146	145	147	0
-146	-145	-147	0
-122	121	123	0
-122	-121	-123	0
315	321	324	0
-325	-326	-321	0
-325	-324	-323	0
-325	-321	-323	0
-322	-323	-324	0
-322	-321	-326	0
-322	-324	-326	0
-316	315	317	0
-316	-315	-317	0
317	323	326	0
-487	486	488	0
-487	-486	-488	0
-346	345	347	0
-346	-345	-347	0
-325	324	326	0
-325	-324	-326	0
-313	312	314	0
-313	-312	-314	0
-310	309	311	0
-310	-309	-311	0
-291	-607	-594	0
-595	-596	609	0
-595	-594	607	0
-595	607	609	0
-608	-609	596	0
-608	-607	594	0
-608	594	596	0
-292	291	293	0
-292	-291	-293	0
-293	-609	-596	0
-601	-597	-594	0
604	597	594	0
604	601	594	0
-602	-603	599	0
-602	-601	597	0
-602	597	599	0
-595	594	596	0
-595	-594	-596	0
-601	-599	-596	0
604	599	596	0
604	601	596	0
-739	-610	-607	0
-617	-613	-607	0
613	610	607	0
617	610	607	0
613	739	607	0
617	739	607	0
-618	-619	615	0
-618	-617	613	0
-618	613	615	0
-618	-739	-610	0
-614	-739	-610	0
-608	607	609	0
-608	-607	-609	0
-739	-610	-609	0
-617	-615	-609	0
615	610	609	0
617	610	609	0
615	739	609	0
617	739	609	0
-490	489	491	0
-490	-489	-491	0
-307	306	308	0
-307	-306	-308	0
-301	300	302	0
-301	-300	-302	0
-298	297	299	0
-298	-297	-299	0
-119	118	120	0
-119	-118	-120	0
-716	-712	-453	0
-723	-719	-453	0
-724	-725	721	0
-724	-723	719	0
-724	719	721	0
-724	-725	-709	0
-724	-723	-711	0
-724	-709	-711	0
-720	-721	-709	0
-720	-719	-711	0
-720	-709	-711	0
-717	-718	-709	0
-717	-716	-711	0
-717	-709	-711	0
-713	-714	-709	0
-713	-712	-711	0
-713	-709	-711	0
-710	-716	-712	0
-724	-716	-712	0
-720	-716	-712	0
-454	453	455	0
-454	-453	-455	0
-716	-712	-455	0
-723	-721	-455	0
-710	709	711	0
-710	-709	-711	0
-733	-729	-726	0
736	729	726	0
736	733	726	0
-734	-735	731	0
-734	-733	729	0
-734	729	731	0
-727	726	728	0
-727	-726	-728	0
-733	-731	-728	0
736	731	728	0
736	733	728	0
856	51	-49	0
857	-51	49	0
-855	857	856	0
-152	-153	138	0
-152	-151	136	0
-152	136	138	0
-152	-153	150	0
-152	-151	148	0
-152	148	150	0
-152	-153	144	0
-152	-151	142	0
-152	142	144	0
-137	-138	153	0
-137	-136	151	0
-137	151	153	0
-137	-138	150	0
-137	-136	148	0
-137	148	150	0
-137	-138	144	0
-137	-136	142	0
-137	142	144	0
-149	-150	153	0
-149	-148	151	0
-149	151	153	0
-149	-150	138	0
-149	-148	136	0
-149	136	138	0
-149	-150	144	0
-149	-148	142	0
-149	142	144	0
-143	-144	153	0
-143	-142	151	0
-143	151	153	0
-143	-144	138	0
-143	-142	136	0
-143	136	138	0
-143	-144	150	0
-143	-142	148	0
-143	148	150	0
-50	49	51	0
-50	-49	-51	0
-352	-353	347	0
-352	-351	345	0
-352	345	347	0
-352	-353	375	0
-352	-351	373	0
-352	373	375	0
-352	-353	344	0
-352	-351	342	0
-352	342	344	0
-346	-347	353	0
-346	-345	351	0
-346	351	353	0
-346	-347	375	0
-346	-345	373	0
-346	373	375	0
-346	-347	344	0
-346	-345	342	0
-346	342	344	0
-374	-375	353	0
-374	-373	351	0
-374	351	353	0
-374	-375	347	0
-374	-373	345	0
-374	345	347	0
-374	-375	344	0
-374	-373	342	0
-374	342	344	0
-343	-344	353	0
-343	-342	351	0
-343	351	353	0
-343	-344	347	0
-343	-342	345	0
-343	345	347	0
-343	-344	375	0
-343	-342	373	0
-343	373	375	0
-137	136	138	0
-137	-136	-138	0
-331	349	352	0
-352	351	353	0
-352	-351	-353	0
-349	348	350	0
-349	-348	-350	0
-331	330	332	0
-331	-330	-332	0
-304	355	358	0
-358	357	359	0
-358	-357	-359	0
-355	354	356	0
-355	-354	-356	0
-510	-506	-303	0
-517	-513	-303	0
-518	-519	515	0
-518	-517	513	0
-518	513	515	0
-518	-519	-503	0
-518	-517	-505	0
-518	-503	-505	0
-514	-515	-503	0
-514	-513	-505	0
-514	-503	-505	0
-511	-512	-503	0
-511	-510	-505	0
-511	-503	-505	0
-507	-508	-503	0
-507	-506	-505	0
-507	-503	-505	0
-504	-510	-506	0
-518	-510	-506	0
-514	-510	-506	0
-304	303	305	0
-304	-303	-305	0
-510	-506	-305	0
-517	-515	-305	0
539	529	503	0
-533	-529	-503	0
-533	-539	-503	0
-540	-541	-529	0
-540	-539	-531	0
-540	-529	-531	0
-504	503	505	0
-504	-503	-505	0
539	531	505	0
-533	-531	-505	0
-533	-539	-505	0
-217	374	377	0
-377	376	378	0
-377	-376	-378	0
-374	373	375	0
-374	-373	-375	0
-428	-222	-216	0
-411	-225	-216	0
-412	-413	227	0
-412	-411	225	0
-412	225	227	0
-412	-413	-219	0
-412	-411	-221	0
-412	-219	-221	0
-226	-227	-219	0
-226	-225	-221	0
-226	-219	-221	0
-429	-430	-219	0
-429	-428	-221	0
-429	-219	-221	0
-223	-224	-219	0
-223	-222	-221	0
-223	-219	-221	0
-220	-428	-222	0
-412	-428	-222	0
-226	-428	-222	0
-217	216	218	0
-217	-216	-218	0
-428	-222	-218	0
-411	-227	-218	0
-220	219	221	0
-220	-219	-221	0
-423	-405	-398	0
415	405	398	0
415	423	398	0
-424	-425	407	0
-424	-423	405	0
-424	405	407	0
-399	398	400	0
-399	-398	-400	0
-423	-407	-400	0
415	407	400	0
415	423	400	0
-110	140	143	0
-143	142	144	0
-143	-142	-144	0
-140	139	141	0
-140	-139	-141	0
-286	-287	311	0
-286	-285	309	0
-286	309	311	0
-286	-287	302	0
-286	-285	300	0
-286	300	302	0
-286	-287	296	0
-286	-285	294	0
-286	294	296	0
-310	-311	287	0
-310	-309	285	0
-310	285	287	0
-310	-311	302	0
-310	-309	300	0
-310	300	302	0
-310	-311	296	0
-310	-309	294	0
-310	294	296	0
-301	-302	287	0
-301	-300	285	0
-301	285	287	0
-301	-302	311	0
-301	-300	309	0
-301	309	311	0
-301	-302	296	0
-301	-300	294	0
-301	294	296	0
-295	-296	287	0
-295	-294	285	0
-295	285	287	0
-295	-296	311	0
-295	-294	309	0
-295	309	311	0
-295	-296	302	0
-295	-294	300	0
-295	300	302	0
-110	109	111	0
-110	-109	-111	0
-286	285	287	0
-286	-285	-287	0
-289	334	337	0
-337	336	338	0
-337	-336	-338	0
-334	333	335	0
-334	-333	-335	0
480	476	288	0
-484	-485	458	0
-484	-483	456	0
-484	456	458	0
-481	-482	-476	0
-481	-480	-478	0
-481	-476	-478	0
-481	-482	458	0
-481	-480	456	0
-481	456	458	0
-477	-478	458	0
-477	-476	456	0
-477	456	458	0
-289	288	290	0
-289	-288	-290	0
480	478	290	0
-463	-459	-456	0
-470	-466	-456	0
466	459	456	0
470	459	456	0
466	463	456	0
470	463	456	0
-471	-472	468	0
-471	-470	466	0
-471	466	468	0
-471	-463	-459	0
-467	-463	-459	0
-457	456	458	0
-457	-456	-458	0
-463	-459	-458	0
-470	-468	-458	0
468	459	458	0
470	459	458	0
468	463	458	0
470	463	458	0
859	48	-46	0
860	-48	46	0
-858	860	859	0
-125	-126	114	0
-125	-124	112	0
-125	112	114	0
-125	-126	141	0
-125	-124	139	0
-125	139	141	0
-125	-126	132	0
-125	-124	130	0
-125	130	132	0
-113	-114	126	0
-113	-112	124	0
-113	124	126	0
-113	-114	141	0
-113	-112	139	0
-113	139	141	0
-113	-114	132	0
-113	-112	130	0
-113	130	132	0
-140	-141	126	0
-140	-139	124	0
-140	124	126	0
-140	-141	114	0
-140	-139	112	0
-140	112	114	0
-140	-141	132	0
-140	-139	130	0
-140	130	132	0
-131	-132	126	0
-131	-130	124	0
-131	124	126	0
-131	-132	114	0
-131	-130	112	0
-131	112	114	0
-131	-132	141	0
-131	-130	139	0
-131	139	141	0
-47	46	48	0
-47	-46	-48	0
-313	-314	356	0
-313	-312	354	0
-313	354	356	0
-313	-314	308	0
-313	-312	306	0
-313	306	308	0
-355	-356	314	0
-355	-354	312	0
-355	312	314	0
-355	-356	308	0
-355	-354	306	0
-355	306	308	0
-307	-308	314	0
-307	-306	312	0
-307	312	314	0
-307	-308	356	0
-307	-306	354	0
-307	354	356	0
-113	112	114	0
-113	-112	-114	0
862	54	-52	0
863	-54	52	0
-861	863	862	0
52	178	154	0
-155	-156	-178	0
-155	-154	-180	0
-155	-178	-180	0
-179	-180	-154	0
-179	-178	-156	0
-179	-154	-156	0
-53	52	54	0
-53	-52	-54	0
54	180	156	0
-319	-320	-163	0
-319	-318	-165	0
-319	-163	-165	0
-319	-320	-160	0
-319	-318	-162	0
-319	-160	-162	0
-319	-320	-169	0
-319	-318	-171	0
-319	-169	-171	0
-164	-165	-318	0
-164	-163	-320	0
-164	-318	-320	0
-164	-165	-160	0
-164	-163	-162	0
-164	-160	-162	0
-164	-165	-169	0
-164	-163	-171	0
-164	-169	-171	0
-161	-162	-318	0
-161	-160	-320	0
-161	-318	-320	0
-161	-162	-163	0
-161	-160	-165	0
-161	-163	-165	0
-161	-162	-169	0
-161	-160	-171	0
-161	-169	-171	0
-170	-171	-318	0
-170	-169	-320	0
-170	-318	-320	0
-170	-171	-163	0
-170	-169	-165	0
-170	-163	-165	0
-170	-171	-160	0
-170	-169	-162	0
-170	-160	-162	0
-155	154	156	0
-155	-154	-156	0
-163	-486	-489	0
-490	-491	488	0
-490	-489	486	0
-490	486	488	0
-487	-488	491	0
-487	-486	489	0
-487	489	491	0
-164	163	165	0
-164	-163	-165	0
-165	-488	-491	0
-349	-350	329	0
-349	-348	327	0
-349	327	329	0
-349	-350	338	0
-349	-348	336	0
-349	336	338	0
-328	-329	350	0
-328	-327	348	0
-328	348	350	0
-328	-329	338	0
-328	-327	336	0
-328	336	338	0
-337	-338	350	0
-337	-336	348	0
-337	348	350	0
-337	-338	329	0
-337	-336	327	0
-337	327	329	0
-161	160	162	0
-161	-160	-162	0
-360	-370	-327	0
376	370	327	0
376	360	327	0
-361	-362	372	0
-361	-360	370	0
-361	370	372	0
-371	-372	362	0
-371	-370	360	0
-371	360	362	0
-361	-362	-376	0
-361	-360	-378	0
-361	-376	-378	0
-371	-372	-376	0
-371	-370	-378	0
-371	-376	-378	0
-328	327	329	0
-328	-327	-329	0
-362	-372	-329	0
378	372	329	0
378	362	329	0
-364	-402	-360	0
367	402	360	0
367	364	360	0
-365	-366	404	0
-365	-364	402	0
-365	402	404	0
-361	360	362	0
-361	-360	-362	0
-364	-404	-362	0
367	404	362	0
367	364	362	0
-646	-379	-370	0
-386	-382	-370	0
382	379	370	0
386	379	370	0
382	646	370	0
386	646	370	0
-387	-388	384	0
-387	-386	382	0
-387	382	384	0
-387	-646	-379	0
-383	-646	-379	0
-371	370	372	0
-371	-370	-372	0
-646	-379	-372	0
-386	-384	-372	0
384	379	372	0
386	379	372	0
384	646	372	0
386	646	372	0
-772	-779	-178	0
-777	-778	-769	0
-777	-776	-771	0
-777	-769	-771	0
-773	-774	-769	0
-773	-772	-771	0
-773	-769	-771	0
-780	-781	-769	0
-780	-779	-771	0
-780	-769	-771	0
-777	-772	-779	0
-770	-772	-779	0
-179	178	180	0
-179	-178	-180	0
-772	-779	-180	0
-770	769	771	0
-770	-769	-771	0
-752	-763	-749	0
-759	-756	-749	0
756	763	749	0
759	763	749	0
756	752	749	0
759	752	749	0
-757	-758	761	0
-757	-756	759	0
-757	759	761	0
-764	-765	754	0
-764	-763	752	0
-764	752	754	0
-750	749	751	0
-750	-749	-751	0
-754	-763	-751	0
-761	-756	-751	0
756	763	751	0
761	763	751	0
756	754	751	0
761	754	751	0
-865	844	837	0
-176	555	558	571	0
231	421	414	418	0
560	563	561	565	0
-561	-664	-653	-665	0
389	393	659	573	0
391	806	793	797	0
390	674	755	775	0
186	194	385	196	0
496	548	516	501	0
103	447	469	449	0
102	580	616	582	0
101	704	722	706	0
77	590	642	592	0
-211	474	477	530	0
-93	-68	-96	-81	0
-95	-70	-98	-83	0
-91	-87	-92	-84	0
-91	-87	-90	-86	0
-91	-87	-84	-86	0
441	444	434	90	0
441	444	274	90	0
-442	441	-274	-434	0
-442	443	-276	-436	0
-445	444	-274	-434	0
-445	446	-276	-436	0
441	444	436	92	0
441	444	276	92	0
87	705	732	707	0
96	204	188	207	0
98	206	190	209	0
668	675	656	207	0
668	675	658	209	0
-698	-697	684	566	0
-698	-699	686	568	0
697	807	811	812	0
-242	-238	-243	-228	0
-242	-238	-241	-230	0
-242	-238	-228	-230	0
536	549	520	241	0
536	549	545	241	0
-537	536	-545	-520	0
-537	538	-547	-522	0
-550	549	-545	-520	0
-550	551	-547	-522	0
536	549	522	243	0
536	549	547	243	0
238	422	426	427	0
-63	-74	-64	-71	0
-63	-74	-62	-73	0
-63	-74	-71	-73	0
-255	-254	251	248	0
-255	-256	253	250	0
254	579	600	581	0
74	591	626	593	0
-107	131	134	152	0
678	694	691	157	0
678	790	691	157	0
678	694	798	157	0
678	790	798	157	0
-679	-790	-680	-694	0
-679	-790	-678	-696	0
-679	-790	-694	-696	0
-799	-790	-800	-694	0
-799	-790	-798	-696	0
-799	-790	-694	-696	0
-692	-790	-693	-694	0
-692	-790	-691	-696	0
-692	-790	-694	-696	0
680	696	691	159	0
680	790	691	159	0
680	696	798	159	0
680	790	798	159	0
-795	-808	-796	-786	0
-795	-808	-794	-788	0
-795	-808	-786	-788	0
-167	319	322	340	0
620	630	623	166	0
620	630	627	166	0
-621	-627	-622	-623	0
-621	-627	-620	-625	0
-621	-627	-623	-625	0
-631	-627	-632	-623	0
-631	-627	-630	-625	0
-631	-627	-623	-625	0
622	630	625	168	0
622	630	627	168	0
-745	-643	-746	-639	0
-745	-643	-744	-641	0
-745	-643	-639	-641	0
-637	-643	-638	-639	0
-637	-643	-636	-641	0
-637	-643	-639	-641	0
-605	-601	-606	-597	0
-605	-601	-604	-599	0
-605	-601	-597	-599	0
-740	-617	-741	-613	0
-740	-617	-739	-615	0
-740	-617	-613	-615	0
-611	-617	-612	-613	0
-611	-617	-610	-615	0
-611	-617	-613	-615	0
709	719	712	453	0
709	723	712	453	0
709	719	716	453	0
709	723	716	453	0
-710	-723	-711	-719	0
-710	-723	-709	-721	0
-710	-723	-719	-721	0
-717	-723	-718	-719	0
-717	-723	-716	-721	0
-717	-723	-719	-721	0
-713	-723	-714	-719	0
-713	-723	-712	-721	0
-713	-723	-719	-721	0
711	721	712	455	0
711	723	712	455	0
711	721	716	455	0
711	723	716	455	0
-737	-733	-738	-729	0
-737	-733	-736	-731	0
-737	-733	-729	-731	0
503	513	506	303	0
503	517	506	303	0
503	513	510	303	0
503	517	510	303	0
-504	-517	-505	-513	0
-504	-517	-503	-515	0
-504	-517	-513	-515	0
-511	-517	-512	-513	0
-511	-517	-510	-515	0
-511	-517	-513	-515	0
-507	-517	-508	-513	0
-507	-517	-506	-515	0
-507	-517	-513	-515	0
505	515	506	305	0
505	517	506	305	0
505	515	510	305	0
505	517	510	305	0
-534	539	-535	531	0
-534	539	-533	529	0
-534	539	529	531	0
219	225	222	216	0
219	411	222	216	0
219	225	428	216	0
219	411	428	216	0
-220	-411	-221	-225	0
-220	-411	-219	-227	0
-220	-411	-225	-227	0
-429	-411	-430	-225	0
-429	-411	-428	-227	0
-429	-411	-225	-227	0
-223	-411	-224	-225	0
-223	-411	-222	-227	0
-223	-411	-225	-227	0
221	227	222	218	0
221	411	222	218	0
221	227	428	218	0
221	411	428	218	0
-416	-423	-417	-405	0
-416	-423	-415	-407	0
-416	-423	-405	-407	0
-456	-483	-476	-288	0
-456	-483	-480	-288	0
-457	480	-458	478	0
-457	480	-456	476	0
-457	480	476	478	0
-484	480	-485	478	0
-484	480	-483	476	0
-484	480	476	478	0
-458	-483	-478	-290	0
-458	-483	-480	-290	0
-464	-470	-465	-466	0
-464	-470	-463	-468	0
-464	-470	-466	-468	0
-460	-470	-461	-466	0
-460	-470	-459	-468	0
-460	-470	-466	-468	0
-112	-306	-354	-312	0
-114	-308	-356	-314	0
-160	-336	-327	-348	0
-162	-338	-329	-350	0
-377	376	-360	-370	0
-377	378	-362	-372	0
-368	-364	-369	-402	0
-368	-364	-367	-404	0
-368	-364	-402	-404	0
-647	-386	-648	-382	0
-647	-386	-646	-384	0
-647	-386	-382	-384	0
-380	-386	-381	-382	0
-380	-386	-379	-384	0
-380	-386	-382	-384	0
776	769	779	178	0
776	769	772	178	0
776	771	779	180	0
776	771	772	180	0
-760	-763	-761	-752	0
-760	-763	-759	-754	0
-760	-763	-752	-754	0
-757	-763	-758	-752	0
-757	-763	-756	-754	0
-757	-763	-752	-754	0
-753	-756	-754	-759	0
-753	-756	-752	-761	0
-753	-756	-759	-761	0
-764	-756	-765	-759	0
-764	-756	-763	-761	0
-764	-756	-759	-761	0
280	260	269	105	409	0
-78	-99	-552	-389	-395	0
-80	-99	-552	-389	-397	0
-57	-583	-560	-58	-575	0
99	105	269	260	280	0
-847	624	730	753	787	0
188	191	195	363	197	0
190	193	195	363	197	0
-43	-297	-145	-127	-133	0
-45	-299	-147	-129	-135	0
-116	125	128	295	343	0
-119	298	301	307	490	0
-49	-142	-148	-136	-151	0
-51	-144	-150	-138	-153	0
-136	-342	-373	-345	-351	0
-138	-344	-375	-347	-353	0
-109	-294	-300	-309	-285	0
-111	-296	-302	-311	-287	0
-46	-130	-139	-112	-124	0
-48	-132	-141	-114	-126	0
154	169	160	163	318	0
156	171	162	165	320	0
53	47	50	44	41	836	0
-79	199	202	214	226	840	0
-840	233	263	267	272	841	0
-841	283	383	439	467	842	0
-842	514	526	614	640	843	0
-843	662	689	695	720	760	0
-94	403	406	493	598	847	0
-292	310	313	325	346	487	0
-864	861	858	855	852	865	0
